Nb of jobs, Nb of Machines, Time seed, Machine seed, Upper bound, Lower bound
3,6,-1,-1,-1,-1
Times
31,89,56,15,30,9
69,46,16,11,89,35
58,75,6,66,71,77
Machines
6,2,1,4,3,5
5,3,2,6,4,1
1,6,3,2,5,4
